100
1000
200
200
200
199
198
197
197
197
196
196
196
195
194
194
192
191
191
191
191
190
190
190
190
188
187
186
185
185
184
184
184
183
181
181
181
180
179
178
178
178
177
177
176
176
176
176
176
175
175
174
173
173
172
171
170
170
168
168
167
167
166
166
166
166
166
165
165
165
165
164
164
164
164
163
163
163
162
162
162
159
159
158
158
157
157
156
156
155
154
154
154
153
153
152
152
151
151
151
150
150
